
Gurobi 8.0.1 (linux64, Python) logging started Wed Nov 28 16:30:13 2018

Academic license - for non-commercial use only
Changed value of parameter TimeLimit to 300.0
   Prev: 1e+100  Min: 0.0  Max: 1e+100  Default: 1e+100
Changed value of parameter MIPFocus to 2
   Prev: 0  Min: 0  Max: 3  Default: 0
Optimize a model with 161 rows, 152 columns and 448 nonzeros
Model has 72 general constraints
Variable types: 88 continuous, 64 integer (48 binary)
Coefficient statistics:
  Matrix range     [1e+00, 3e+01]
  Objective range  [6e+01, 1e+02]
  Bounds range     [1e+00, 1e+00]
  RHS range        [1e+00, 3e+01]
Presolve added 72 rows and 0 columns
Presolve time: 0.00s
Presolved: 233 rows, 152 columns, 1256 nonzeros
Variable types: 0 continuous, 152 integer (120 binary)
Presolved: 233 rows, 152 columns, 1256 nonzeros


Root relaxation: objective 0.000000e+00, 129 iterations, 0.00 seconds

    Nodes    |    Current Node    |     Objective Bounds      |     Work
 Expl Unexpl |  Obj  Depth IntInf | Incumbent    BestBd   Gap | It/Node Time

     0     0    0.00000    0   34          -    0.00000      -     -    0s
H    0     0                    1024.0000000    0.00000   100%     -    0s
H    0     0                     832.0000000    0.00000   100%     -    0s
     0     0    0.00000    0   89  832.00000    0.00000   100%     -    0s
H    0     0                     768.0000000    0.00000   100%     -    0s
H    0     0                     640.0000000    0.00000   100%     -    0s
     0     0    0.00000    0   41  640.00000    0.00000   100%     -    0s
     0     0    0.00000    0   41  640.00000    0.00000   100%     -    0s
     0     2    0.00000    0   41  640.00000    0.00000   100%     -    0s

Cutting planes:
  Gomory: 6
  Flow cover: 1
  Zero half: 170

Explored 2719 nodes (38306 simplex iterations) in 0.68 seconds
Thread count was 4 (of 4 available processors)

Solution count 4: 640 768 832 1024 

Optimal solution found (tolerance 1.00e-04)
Best objective 6.400000000000e+02, best bound 6.400000000000e+02, gap 0.0000%

Solution quality statistics for model meshILPv1 :
  Maximum violation:
    Bound       : 0.00000000e+00
    Constraint  : 0.00000000e+00
    Integrality : 0.00000000e+00
	arc=('jug2', 'mem'),	v=64	hops=2.0	cost=128.0
	arc=('jug1', 'mem'),	v=64	hops=1.0	cost=64.0
	arc=('inmem2', 'jug2'),	v=64	hops=1.0	cost=64.0
	arc=('HS', 'VS'),	v=64	hops=1.0	cost=64.0
	arc=('inmem1', 'inmem2'),	v=64	hops=1.0	cost=64.0
	arc=('inmem1', 'HS'),	v=128	hops=1.0	cost=128.0
	arc=('mem', 'odisp'),	v=64	hops=1.0	cost=64.0
	arc=('VS', 'jug1'),	v=64	hops=1.0	cost=64.0
Runtime = 0.693074941635	objVal = 640.0
